
Gurobi 6.5.2 (linux64) logging started Wed Aug 31 10:35:41 2016

Optimize a model with 201 rows, 3565 columns and 7133 nonzeros
Coefficient statistics:
  Matrix range    [1e+00, 2e+00]
  Objective range [1e+00, 1e+02]
  Bounds range    [1e+00, 1e+00]
  RHS range       [1e+00, 1e+00]
Found heuristic solution: objective 5459
Presolve removed 100 rows and 98 columns
Presolve time: 0.01s
Presolved: 101 rows, 3467 columns, 6934 nonzeros
Variable types: 0 continuous, 3467 integer (3467 binary)

Root relaxation: objective 9.500000e+02, 147 iterations, 0.00 seconds

    Nodes    |    Current Node    |     Objective Bounds      |     Work
 Expl Unexpl |  Obj  Depth IntInf | Incumbent    BestBd   Gap | It/Node Time

     0     0  950.00000    0    6 5459.00000  950.00000  82.6%     -    0s
H    0     0                     984.0000000  950.00000  3.46%     -    0s
H    0     0                     952.0000000  950.00000  0.21%     -    0s
     0     0     cutoff    0       952.00000  951.00095  0.10%     -    0s

Cutting planes:
  Zero half: 2

Explored 0 nodes (158 simplex iterations) in 0.04 seconds
Thread count was 8 (of 8 available processors)

Optimal solution found (tolerance 1.00e-04)
Best objective 9.520000000000e+02, best bound 9.520000000000e+02, gap 0.0%
